decision_x1=[0,4];
decision_x2=[0,4];
decision_x3=[0,4];
decision_x4=[0,4];
random_y1=[0,4];
random_y2=[0,4];
constraint_x2_x1=[
0,1,2.2|
0,2,6.9|
0,3,6.3|
0,4,9.2|
1,0,2.4|
1,2,1.2|
1,3,1.8|
1,4,8.3|
2,0,2.1|
2,1,2.6|
2,3,2.3|
2,4,0.66|
3,0,1.3|
3,1,0.03|
3,2,8.9|
3,4,7.3|
4,0,3|
4,1,8.5|
4,2,3.2|
4,3,2|
];
constraint_x3_x1=[
0,1,6|
0,2,0.66|
0,3,6.2|
0,4,4.5|
1,0,1.1|
1,2,7.2|
1,3,9.8|
1,4,7.4|
2,0,8.1|
2,1,7|
2,3,1.3|
2,4,2.1|
3,0,7.2|
3,1,7|
3,2,6.8|
3,4,5.6|
4,0,0.51|
4,1,1.4|
4,2,1.2|
4,3,8.6|
];
constraint_x4_x1=[
0,1,4.1|
0,2,1.8|
0,3,10|
0,4,7.7|
1,0,2|
1,2,1.8|
1,3,0.98|
1,4,2.8|
2,0,5.1|
2,1,2.2|
2,3,6.1|
2,4,3.3|
3,0,9.1|
3,1,5.3|
3,2,3.9|
3,4,4.7|
4,0,0.28|
4,1,0.38|
4,2,6.7|
4,3,4.6|
];
constraint_x1_y1=[
0,0,9.4|
0,1,8.9|
0,2,1.7|
0,3,8|
0,4,5.8|
1,0,4.9|
1,1,3.5|
1,2,6.8|
1,3,4.1|
1,4,9.3|
2,0,4.1|
2,1,5.5|
2,2,2.9|
2,3,6|
2,4,0.48|
3,0,9.6|
3,1,3.5|
3,2,5.4|
3,3,1.2|
3,4,7.7|
4,0,3.4|
4,1,4.4|
4,2,9.6|
4,3,7|
4,4,9.5|
];
constraint_x2_y2=[
0,0,2.7|
0,1,3.5|
0,2,4.5|
0,3,3.3|
0,4,3.8|
1,0,6.4|
1,1,9.3|
1,2,6.3|
1,3,0.13|
1,4,10|
2,0,5.6|
2,1,4.7|
2,2,3|
2,3,7.1|
2,4,5.8|
3,0,0.21|
3,1,0.14|
3,2,5.6|
3,3,5|
3,4,0.27|
4,0,0.18|
4,1,6.8|
4,2,2.3|
4,3,5.1|
4,4,4.1|
];
initial_distribution_y1=[0.057,0.26,0.2,0.23,0.24];
initial_distribution_y2=[0.075,0.16,0.038,0.63,0.09];
transition_y1=[
0.3,0.13,0.27,0.3,0.0082|
0.27,0.23,0.16,0.25,0.098|
0.076,0.24,0.31,0.29,0.086|
0.37,0.17,0.11,0.3,0.044|
0.42,0.17,0.053,0.064,0.3|
];
transition_y2=[
0.25,0.22,0.14,0.29,0.1|
0.29,0.26,0.33,0.068,0.05|
0.26,0.12,0.12,0.22,0.28|
0.35,0.066,0.25,0.23,0.11|
0.43,0.13,0.071,0.27,0.11|
];
